BEGIN IONS
PEPMASS=349.20095
CHARGE=1+
FILENAME=PMA_065444
UNPD_ID=UNPD159661
MOLECULAR_FORMULA=C20H28O5
SEQ=*..*
IONMODE=Positive
EXACTMASS=348.193674
NAME=UNPD159661
SMILES=CC1C(O)C2(O)C(C3C=C(CO)CC4=C(C=C(C)C4O)C13O)C2(C)C
INCHI=InChI=1/C20H28O5/c1-9-5-13-12(15(9)22)6-11(8-21)7-14-16-18(3,4)20(16,25)17(23)10(2)19(13,14)24/h5,7,10,14-17,21-25H,6,8H2,1-4H3/t10-,14+,15+,16-,17-,19+,20-/m1/s1
INCHIKEY=CECQLSSRZIBODZ-MFYSWCGQSA-N
SCANS=1/.*/
93.07042529 0.1721895631
95.04968984 0.2055541692
107.0496898 0.3517217264
109.0653399 0.7990951972
141.0915547 0.2428717614
147.08099 0.1983133304
163.0759046 0.2772766459
165.0915547 0.2138327979
199.1334195 0.2266414054
END IONS
BEGIN IONS
PEPMASS=649.321853
CHARGE=1+
FILENAME=PMA_065445
UNPD_ID=UNPD159662
MOLECULAR_FORMULA=C34H48O12
SEQ=*..*
IONMODE=Positive
EXACTMASS=648.314577
NAME=UNPD159662
SMILES=CCCCCCCC(=O)OC1C(O)C(OC(=O)C)C2(C)C(CC3OC3(C)C2C(OC(=O)C)C4=C(C)C(=O)OC4C=C/1C)OC(=O)C
INCHI=InChI=1/C34H48O12/c1-9-10-11-12-13-14-25(38)45-28-17(2)15-22-26(18(3)32(40)44-22)29(42-20(5)36)30-33(7,31(27(28)39)43-21(6)37)23(41-19(4)35)16-24-34(30,8)46-24/h15,22-24,27-31,39H,9-14,16H2,1-8H3/b17-15-/t22-,23-,24-,27+,28-,29-,30+,31-,33-,34-/m0/s1
INCHIKEY=UVMUFJRGIMSQGZ-FQAPTSTFSA-N
SCANS=1
43.01838972 1.139114154
85.10172542 1.665147809
109.1017254 1.238019157
125.09664 1.082500395
127.1122901 9.875264953
443.1705928 1.094231865
445.1862429 0.8702441393
445.1862429 1.102821985
447.201893 1.057273498
END IONS